letting n =  10
letting blocks =  [[1, 1], [1, 2], [1, 6], [1, 7], [1, 9], [2, 3], [2, 9], [3, 8], [3, 9], [4, 5], [5, 2], [5, 3], [5, 9], [5, 10], [6, 2], [7, 2], [7, 3], [8, 5], [8, 7], [8, 8], [9, 5], [9, 7], [10, 1], [10, 4]]
